Solver command line: ['C:\\Program Files\\IBM\\ILOG\\CPLEX_Studio221\\cplex\\bin\\x64_win64\\cplex.exe']


Welcome to IBM(R) ILOG(R) CPLEX(R) Interactive Optimizer 22.1.0.0
  with Simplex, Mixed Integer & Barrier Optimizers
5725-A06 5725-A29 5724-Y48 5724-Y49 5724-Y54 5724-Y55 5655-Y21
Copyright IBM Corp. 1988, 2022.  All Rights Reserved.

Type 'help' for a list of available commands.
Type 'help' followed by a command name for more
information on commands.

CPLEX> Logfile 'cplex.log' closed.
Logfile 'data\30_bus\3_trips_per_bus\2_steps_obj_non_simplify\2_6_1\step3_15.log' open.
CPLEX> New value for mixed integer solutions limit: 1
CPLEX> New value for time limit in seconds: 360
CPLEX> New value for default parallel thread count: 1
CPLEX> Problem 'C:\Users\Mathis\AppData\Local\Temp\tmp24rxtnbl.pyomo.lp' read.
Read time = 0.06 sec. (6.10 ticks)
CPLEX> Problem name         : C:\Users\Mathis\AppData\Local\Temp\tmp24rxtnbl.pyomo.lp
Objective sense      : Minimize
Variables            :   44734  [Nneg: 14440,  Binary: 30294]
Objective nonzeros   :       1
Linear constraints   :   45335  [Less: 43864,  Greater: 420,  Equal: 1051]
  Nonzeros           :  223192
  RHS nonzeros       :   31496

Variables            : Min LB: 0.000000         Max UB: 1.000000       
Objective nonzeros   : Min   : 1.116003e+07     Max   : 1.116003e+07   
Linear constraints   :
  Nonzeros           : Min   : 0.2192982        Max   : 10000.00       
  RHS nonzeros       : Min   : 1.000000         Max   : 10000.00       
CPLEX> Version identifier: 22.1.0.0 | 2022-03-09 | 1a383f8ce
CPXPARAM_Threads                                 1
CPXPARAM_MIP_Limits_Solutions                    1
CPXPARAM_TimeLimit                               360
Tried aggregator 2 times.
MIP Presolve eliminated 38122 rows and 25674 columns.
MIP Presolve modified 32149 coefficients.
Aggregator did 271 substitutions.
Reduced MIP has 6942 rows, 18789 columns, and 60151 nonzeros.
Reduced MIP has 18328 binaries, 0 generals, 0 SOSs, and 0 indicators.
Presolve time = 0.09 sec. (102.30 ticks)
Probing time = 0.02 sec. (7.12 ticks)
Tried aggregator 1 time.
Detecting symmetries...
Reduced MIP has 6942 rows, 18789 columns, and 60151 nonzeros.
Reduced MIP has 18328 binaries, 0 generals, 0 SOSs, and 0 indicators.
Presolve time = 0.05 sec. (39.36 ticks)
Probing time = 0.02 sec. (7.08 ticks)
Clique table members: 2113.
MIP emphasis: balance optimality and feasibility.
MIP search method: dynamic search.
Parallel mode: none, using 1 thread.
Root relaxation solution time = 0.06 sec. (105.14 ticks)

        Nodes                                         Cuts/
   Node  Left     Objective  IInf  Best Integer    Best Bound    ItCnt     Gap

      0     0   1.11600e+07   438                 1.11600e+07     1418         
      0     0   1.11600e+07    36                     Cuts: 8     1441         
      0     0   1.11600e+07   174                   Cuts: 303     1913         
      0     2   1.11600e+07    12                 1.11600e+07     1913         
Elapsed time = 2.20 sec. (3182.83 ticks, tree = 0.01 MB, solutions = 0)
     10    12   1.11600e+07    29                 1.11600e+07     3249         
*    20+    2                       1.11600e+07   1.11600e+07             0.00%

Clique cuts applied:  3
Implied bound cuts applied:  10
Flow cuts applied:  1
Mixed integer rounding cuts applied:  52
Multi commodity flow cuts applied:  3
Gomory fractional cuts applied:  1

Root node processing (before b&c):
  Real time             =    2.20 sec. (3184.10 ticks)
Sequential b&c:
  Real time             =    0.41 sec. (744.23 ticks)
                          ------------
Total (root+branch&cut) =    2.61 sec. (3928.33 ticks)

Solution pool: 1 solution saved.

MIP - Integer optimal solution:  Objective =  1.1160025000e+07
Solution time =    2.61 sec.  Iterations = 4464  Nodes = 20
Deterministic time = 3928.45 ticks  (1505.73 ticks/sec)

CPLEX> Incumbent solution written to file 'C:\Users\Mathis\AppData\Local\Temp\tmp9sv7lazu.cplex.sol'.
CPLEX> 
